c FILE: m250-10-1.dat
c
c AUTHOR: Marcelo de Souza
c
c DESCRIPTION: This is a random graph with 250 vertices.
c   Each of pair of vertices are made adjacent with probability p = 0.1.
c   The random seed used for its generation was 7345851878.
c
c May 7th, 2019
c
p edge 250 3151
e 1 14
e 1 26
e 1 32
e 1 46
e 1 66
e 1 70
e 1 101
e 1 105
e 1 119
e 1 120
e 1 156
e 1 158
e 1 160
e 1 163
e 1 174
e 1 182
e 1 194
e 1 200
e 1 203
e 1 208
e 1 211
e 2 12
e 2 14
e 2 22
e 2 23
e 2 40
e 2 41
e 2 62
e 2 104
e 2 107
e 2 125
e 2 138
e 2 139
e 2 140
e 2 160
e 2 165
e 2 169
e 2 173
e 2 177
e 2 182
e 2 189
e 2 190
e 2 193
e 2 198
e 2 201
e 2 205
e 2 206
e 2 209
e 2 212
e 2 218
e 3 16
e 3 65
e 3 78
e 3 95
e 3 103
e 3 125
e 3 127
e 3 130
e 3 138
e 3 147
e 3 162
e 3 166
e 3 197
e 3 201
e 3 214
e 3 216
e 3 222
e 3 223
e 3 226
e 4 24
e 4 28
e 4 46
e 4 48
e 4 59
e 4 70
e 4 75
e 4 78
e 4 81
e 4 85
e 4 94
e 4 95
e 4 115
e 4 120
e 4 122
e 4 130
e 4 147
e 4 150
e 4 153
e 4 155
e 4 158
e 4 161
e 4 169
e 4 179
e 4 189
e 4 195
e 4 210
e 4 215
e 4 218
e 4 238
e 4 246
e 5 13
e 5 27
e 5 28
e 5 34
e 5 38
e 5 51
e 5 59
e 5 64
e 5 73
e 5 78
e 5 79
e 5 86
e 5 94
e 5 96
e 5 97
e 5 100
e 5 109
e 5 114
e 5 116
e 5 123
e 5 125
e 5 129
e 5 131
e 5 143
e 5 169
e 5 176
e 5 181
e 5 187
e 5 188
e 5 195
e 5 200
e 5 203
e 5 204
e 5 208
e 5 209
e 5 222
e 5 224
e 5 240
e 5 241
e 5 243
e 5 245
e 6 10
e 6 15
e 6 30
e 6 31
e 6 42
e 6 49
e 6 50
e 6 53
e 6 58
e 6 78
e 6 90
e 6 91
e 6 104
e 6 117
e 6 128
e 6 131
e 6 152
e 6 162
e 6 163
e 6 189
e 6 209
e 6 215
e 6 225
e 7 25
e 7 30
e 7 38
e 7 41
e 7 49
e 7 58
e 7 68
e 7 70
e 7 78
e 7 92
e 7 104
e 7 124
e 7 127
e 7 129
e 7 130
e 7 145
e 7 192
e 7 210
e 7 214
e 7 226
e 7 227
e 8 9
e 8 10
e 8 11
e 8 15
e 8 62
e 8 69
e 8 85
e 8 115
e 8 119
e 8 132
e 8 141
e 8 143
e 8 148
e 8 156
e 8 182
e 8 186
e 8 194
e 8 213
e 8 214
e 8 216
e 8 220
e 8 227
e 8 235
e 8 243
e 9 10
e 9 13
e 9 23
e 9 75
e 9 119
e 9 126
e 9 162
e 9 165
e 9 167
e 9 168
e 9 202
e 9 216
e 9 237
e 9 240
e 9 247
e 9 250
e 10 11
e 10 14
e 10 26
e 10 31
e 10 52
e 10 53
e 10 64
e 10 80
e 10 96
e 10 110
e 10 130
e 10 139
e 10 141
e 10 142
e 10 144
e 10 192
e 10 199
e 10 213
e 10 219
e 10 221
e 10 230
e 10 236
e 10 238
e 10 246
e 11 17
e 11 19
e 11 21
e 11 29
e 11 37
e 11 47
e 11 48
e 11 56
e 11 59
e 11 74
e 11 76
e 11 99
e 11 101
e 11 112
e 11 130
e 11 145
e 11 147
e 11 155
e 11 161
e 11 164
e 11 187
e 11 191
e 11 199
e 11 203
e 11 205
e 11 210
e 11 216
e 11 221
e 11 227
e 11 243
e 12 13
e 12 26
e 12 34
e 12 63
e 12 70
e 12 104
e 12 138
e 12 157
e 12 182
e 12 191
e 12 198
e 12 206
e 12 222
e 12 223
e 12 226
e 12 245
e 12 249
e 13 15
e 13 23
e 13 32
e 13 34
e 13 52
e 13 54
e 13 67
e 13 69
e 13 81
e 13 89
e 13 96
e 13 97
e 13 102
e 13 109
e 13 132
e 13 134
e 13 135
e 13 140
e 13 144
e 13 197
e 13 213
e 13 219
e 13 222
e 13 233
e 13 239
e 14 16
e 14 23
e 14 33
e 14 36
e 14 44
e 14 53
e 14 70
e 14 74
e 14 77
e 14 82
e 14 84
e 14 88
e 14 104
e 14 139
e 14 174
e 14 180
e 14 184
e 14 193
e 14 197
e 14 203
e 14 206
e 14 213
e 14 214
e 14 227
e 14 241
e 14 242
e 14 245
e 15 18
e 15 28
e 15 41
e 15 42
e 15 52
e 15 66
e 15 68
e 15 75
e 15 76
e 15 82
e 15 86
e 15 87
e 15 89
e 15 90
e 15 100
e 15 102
e 15 110
e 15 116
e 15 119
e 15 123
e 15 140
e 15 144
e 15 181
e 15 184
e 15 187
e 15 189
e 15 193
e 15 198
e 15 214
e 15 223
e 15 224
e 15 241
e 15 248
e 16 30
e 16 43
e 16 49
e 16 69
e 16 82
e 16 98
e 16 103
e 16 106
e 16 107
e 16 112
e 16 113
e 16 115
e 16 126
e 16 139
e 16 146
e 16 156
e 16 160
e 16 174
e 16 175
e 16 181
e 16 183
e 16 184
e 16 192
e 16 200
e 16 201
e 16 210
e 16 220
e 16 228
e 16 230
e 16 233
e 16 244
e 17 36
e 17 37
e 17 42
e 17 47
e 17 54
e 17 81
e 17 88
e 17 107
e 17 120
e 17 124
e 17 130
e 17 134
e 17 143
e 17 147
e 17 155
e 17 159
e 17 166
e 17 173
e 17 176
e 17 209
e 17 217
e 17 220
e 17 245
e 17 248
e 18 23
e 18 29
e 18 32
e 18 61
e 18 89
e 18 103
e 18 127
e 18 138
e 18 149
e 18 153
e 18 169
e 18 199
e 18 206
e 18 215
e 18 218
e 18 227
e 18 232
e 18 233
e 19 21
e 19 22
e 19 32
e 19 47
e 19 66
e 19 107
e 19 116
e 19 118
e 19 124
e 19 133
e 19 142
e 19 150
e 19 157
e 19 167
e 19 188
e 19 210
e 19 222
e 19 224
e 19 242
e 20 23
e 20 27
e 20 34
e 20 35
e 20 49
e 20 61
e 20 62
e 20 96
e 20 109
e 20 133
e 20 138
e 20 142
e 20 146
e 20 162
e 20 172
e 20 174
e 20 178
e 20 180
e 20 190
e 20 201
e 20 214
e 20 219
e 20 220
e 20 225
e 21 54
e 21 55
e 21 56
e 21 74
e 21 79
e 21 100
e 21 110
e 21 113
e 21 137
e 21 138
e 21 145
e 21 156
e 21 169
e 21 172
e 21 180
e 21 201
e 21 209
e 21 210
e 21 221
e 21 226
e 21 230
e 21 231
e 21 232
e 21 233
e 21 243
e 21 246
e 22 36
e 22 44
e 22 78
e 22 81
e 22 87
e 22 93
e 22 106
e 22 115
e 22 118
e 22 142
e 22 152
e 22 154
e 22 163
e 22 165
e 22 175
e 22 179
e 22 207
e 22 212
e 22 217
e 22 219
e 22 223
e 22 235
e 22 236
e 22 247
e 23 24
e 23 28
e 23 33
e 23 40
e 23 47
e 23 87
e 23 104
e 23 108
e 23 123
e 23 127
e 23 143
e 23 157
e 23 187
e 23 192
e 23 193
e 23 196
e 23 200
e 23 204
e 23 213
e 23 221
e 23 229
e 23 235
e 23 239
e 23 240
e 24 36
e 24 38
e 24 50
e 24 56
e 24 58
e 24 65
e 24 90
e 24 108
e 24 138
e 24 155
e 24 157
e 24 182
e 24 200
e 24 201
e 24 213
e 24 217
e 24 225
e 24 235
e 24 239
e 25 32
e 25 41
e 25 62
e 25 63
e 25 90
e 25 94
e 25 101
e 25 105
e 25 118
e 25 140
e 25 159
e 25 183
e 25 191
e 25 196
e 25 197
e 25 212
e 25 222
e 25 224
e 25 226
e 25 231
e 25 236
e 25 242
e 25 244
e 26 28
e 26 37
e 26 44
e 26 69
e 26 87
e 26 88
e 26 95
e 26 108
e 26 125
e 26 130
e 26 140
e 26 162
e 26 167
e 26 177
e 26 179
e 26 188
e 26 206
e 26 210
e 26 215
e 26 218
e 26 224
e 27 30
e 27 38
e 27 44
e 27 47
e 27 64
e 27 66
e 27 70
e 27 74
e 27 75
e 27 80
e 27 96
e 27 109
e 27 117
e 27 141
e 27 150
e 27 151
e 27 154
e 27 156
e 27 166
e 27 167
e 27 175
e 27 190
e 27 198
e 27 199
e 27 214
e 27 241
e 28 53
e 28 57
e 28 68
e 28 72
e 28 81
e 28 83
e 28 106
e 28 109
e 28 110
e 28 112
e 28 126
e 28 149
e 28 163
e 28 166
e 28 180
e 28 188
e 28 215
e 28 216
e 28 219
e 28 227
e 28 231
e 28 244
e 29 57
e 29 63
e 29 65
e 29 75
e 29 86
e 29 104
e 29 105
e 29 108
e 29 109
e 29 149
e 29 167
e 29 170
e 29 185
e 29 190
e 29 192
e 29 194
e 29 217
e 29 248
e 30 34
e 30 35
e 30 42
e 30 105
e 30 113
e 30 116
e 30 123
e 30 138
e 30 141
e 30 145
e 30 160
e 30 221
e 30 245
e 31 40
e 31 44
e 31 50
e 31 54
e 31 70
e 31 77
e 31 84
e 31 88
e 31 94
e 31 95
e 31 96
e 31 99
e 31 106
e 31 124
e 31 139
e 31 140
e 31 154
e 31 164
e 31 185
e 31 201
e 31 206
e 31 211
e 31 215
e 31 239
e 32 40
e 32 41
e 32 42
e 32 48
e 32 51
e 32 56
e 32 67
e 32 84
e 32 92
e 32 113
e 32 135
e 32 136
e 32 143
e 32 145
e 32 165
e 32 214
e 32 223
e 32 226
e 32 233
e 32 244
e 33 34
e 33 39
e 33 44
e 33 50
e 33 58
e 33 77
e 33 81
e 33 109
e 33 128
e 33 133
e 33 135
e 33 184
e 33 191
e 33 210
e 33 214
e 33 228
e 33 231
e 33 248
e 34 67
e 34 86
e 34 87
e 34 88
e 34 98
e 34 105
e 34 116
e 34 120
e 34 134
e 34 168
e 34 170
e 34 176
e 34 180
e 34 181
e 34 191
e 34 197
e 34 201
e 34 203
e 34 206
e 34 208
e 34 211
e 34 227
e 34 241
e 34 246
e 35 43
e 35 44
e 35 54
e 35 56
e 35 63
e 35 65
e 35 78
e 35 85
e 35 86
e 35 100
e 35 104
e 35 114
e 35 121
e 35 138
e 35 139
e 35 154
e 35 158
e 35 164
e 35 175
e 35 178
e 35 182
e 35 186
e 35 197
e 35 205
e 35 228
e 35 240
e 36 44
e 36 52
e 36 56
e 36 58
e 36 59
e 36 60
e 36 69
e 36 75
e 36 105
e 36 107
e 36 112
e 36 120
e 36 121
e 36 122
e 36 127
e 36 142
e 36 157
e 36 200
e 36 210
e 36 221
e 36 237
e 36 243
e 36 247
e 37 56
e 37 64
e 37 69
e 37 89
e 37 117
e 37 125
e 37 158
e 37 159
e 37 166
e 37 180
e 37 203
e 37 206
e 37 212
e 37 223
e 37 231
e 37 236
e 37 249
e 38 57
e 38 65
e 38 87
e 38 99
e 38 117
e 38 127
e 38 131
e 38 137
e 38 143
e 38 154
e 38 186
e 38 187
e 38 198
e 38 200
e 38 204
e 38 214
e 38 228
e 38 248
e 39 47
e 39 80
e 39 82
e 39 91
e 39 99
e 39 105
e 39 116
e 39 128
e 39 130
e 39 150
e 39 154
e 39 160
e 39 165
e 39 167
e 39 170
e 39 196
e 39 197
e 39 201
e 39 203
e 39 205
e 39 212
e 39 215
e 39 235
e 39 248
e 40 50
e 40 61
e 40 94
e 40 95
e 40 97
e 40 122
e 40 123
e 40 132
e 40 142
e 40 160
e 40 162
e 40 165
e 40 204
e 40 207
e 40 216
e 40 221
e 41 44
e 41 47
e 41 69
e 41 88
e 41 102
e 41 105
e 41 110
e 41 115
e 41 118
e 41 121
e 41 127
e 41 130
e 41 135
e 41 138
e 41 153
e 41 158
e 41 159
e 41 162
e 41 168
e 41 172
e 41 199
e 41 216
e 41 222
e 41 227
e 42 50
e 42 53
e 42 100
e 42 101
e 42 111
e 42 126
e 42 129
e 42 135
e 42 137
e 42 140
e 42 153
e 42 183
e 42 189
e 42 193
e 42 203
e 42 206
e 42 209
e 42 219
e 42 225
e 42 233
e 42 244
e 43 56
e 43 63
e 43 66
e 43 69
e 43 73
e 43 94
e 43 106
e 43 109
e 43 139
e 43 164
e 43 173
e 43 182
e 43 213
e 43 214
e 43 226
e 43 230
e 43 232
e 43 241
e 43 246
e 43 250
e 44 53
e 44 59
e 44 67
e 44 71
e 44 88
e 44 98
e 44 110
e 44 111
e 44 117
e 44 122
e 44 123
e 44 124
e 44 125
e 44 131
e 44 140
e 44 146
e 44 159
e 44 160
e 44 172
e 44 202
e 44 211
e 44 212
e 44 225
e 44 233
e 44 237
e 44 250
e 45 48
e 45 73
e 45 77
e 45 79
e 45 83
e 45 85
e 45 105
e 45 116
e 45 143
e 45 147
e 45 148
e 45 154
e 45 156
e 45 161
e 45 177
e 45 201
e 45 220
e 45 226
e 45 235
e 45 239
e 45 248
e 46 52
e 46 57
e 46 61
e 46 72
e 46 77
e 46 92
e 46 99
e 46 122
e 46 144
e 46 149
e 46 155
e 46 161
e 46 180
e 46 194
e 46 201
e 46 206
e 46 207
e 46 210
e 46 225
e 46 235
e 47 51
e 47 58
e 47 68
e 47 69
e 47 73
e 47 76
e 47 101
e 47 103
e 47 110
e 47 125
e 47 150
e 47 157
e 47 166
e 47 170
e 47 177
e 47 203
e 47 214
e 47 223
e 47 236
e 48 56
e 48 72
e 48 74
e 48 85
e 48 90
e 48 110
e 48 111
e 48 112
e 48 140
e 48 144
e 48 162
e 48 214
e 48 224
e 48 233
e 48 235
e 49 59
e 49 60
e 49 68
e 49 96
e 49 103
e 49 105
e 49 108
e 49 127
e 49 135
e 49 154
e 49 160
e 49 162
e 49 173
e 49 180
e 49 187
e 49 190
e 49 192
e 49 198
e 49 199
e 49 200
e 49 205
e 49 214
e 49 230
e 50 52
e 50 58
e 50 86
e 50 93
e 50 97
e 50 113
e 50 115
e 50 123
e 50 131
e 50 133
e 50 137
e 50 138
e 50 152
e 50 165
e 50 193
e 50 207
e 50 212
e 50 213
e 50 220
e 50 248
e 51 70
e 51 82
e 51 83
e 51 84
e 51 90
e 51 113
e 51 117
e 51 127
e 51 131
e 51 152
e 51 156
e 51 158
e 51 160
e 51 171
e 51 182
e 51 189
e 51 196
e 51 199
e 51 214
e 51 220
e 52 71
e 52 94
e 52 96
e 52 97
e 52 105
e 52 110
e 52 123
e 52 129
e 52 142
e 52 154
e 52 162
e 52 181
e 52 186
e 52 195
e 52 196
e 52 201
e 52 212
e 52 228
e 52 248
e 53 81
e 53 94
e 53 106
e 53 118
e 53 133
e 53 145
e 53 148
e 53 149
e 53 151
e 53 154
e 53 167
e 53 176
e 53 185
e 53 194
e 53 195
e 53 197
e 53 203
e 53 206
e 53 214
e 53 231
e 54 64
e 54 78
e 54 81
e 54 91
e 54 95
e 54 96
e 54 104
e 54 105
e 54 125
e 54 126
e 54 145
e 54 154
e 54 155
e 54 159
e 54 169
e 54 173
e 54 177
e 54 183
e 54 193
e 54 199
e 54 211
e 54 214
e 54 218
e 54 220
e 54 226
e 55 65
e 55 69
e 55 73
e 55 74
e 55 107
e 55 145
e 55 148
e 55 163
e 55 169
e 55 172
e 55 182
e 55 202
e 55 212
e 55 223
e 56 62
e 56 73
e 56 76
e 56 101
e 56 112
e 56 124
e 56 137
e 56 140
e 56 157
e 56 175
e 56 185
e 56 224
e 56 239
e 56 248
e 57 59
e 57 70
e 57 93
e 57 95
e 57 102
e 57 108
e 57 123
e 57 124
e 57 138
e 57 165
e 57 167
e 57 183
e 57 209
e 57 215
e 57 233
e 57 240
e 58 79
e 58 84
e 58 85
e 58 94
e 58 96
e 58 117
e 58 134
e 58 153
e 58 170
e 58 173
e 58 178
e 58 183
e 58 198
e 58 200
e 58 208
e 58 212
e 58 217
e 58 227
e 58 231
e 58 232
e 58 243
e 59 66
e 59 73
e 59 91
e 59 124
e 59 133
e 59 170
e 59 171
e 59 176
e 59 208
e 59 214
e 59 224
e 59 245
e 60 70
e 60 72
e 60 75
e 60 77
e 60 93
e 60 101
e 60 109
e 60 111
e 60 119
e 60 134
e 60 146
e 60 154
e 60 156
e 60 157
e 60 161
e 60 168
e 60 170
e 60 191
e 60 193
e 60 212
e 60 228
e 60 244
e 61 63
e 61 68
e 61 70
e 61 81
e 61 96
e 61 97
e 61 141
e 61 146
e 61 147
e 61 155
e 61 159
e 61 160
e 61 167
e 61 175
e 61 177
e 61 199
e 61 215
e 61 216
e 61 217
e 61 223
e 61 234
e 61 246
e 61 248
e 61 250
e 62 64
e 62 66
e 62 71
e 62 73
e 62 79
e 62 100
e 62 108
e 62 111
e 62 118
e 62 126
e 62 131
e 62 137
e 62 139
e 62 147
e 62 157
e 62 160
e 62 163
e 62 169
e 62 174
e 62 189
e 62 200
e 62 201
e 62 208
e 62 225
e 62 227
e 62 232
e 63 81
e 63 84
e 63 95
e 63 102
e 63 106
e 63 115
e 63 132
e 63 152
e 63 154
e 63 158
e 63 159
e 63 171
e 63 176
e 63 191
e 63 197
e 63 216
e 63 219
e 63 236
e 63 249
e 64 73
e 64 80
e 64 95
e 64 109
e 64 111
e 64 113
e 64 114
e 64 127
e 64 138
e 64 151
e 64 168
e 64 196
e 64 200
e 64 202
e 64 208
e 64 215
e 64 226
e 64 235
e 64 240
e 65 66
e 65 77
e 65 96
e 65 100
e 65 116
e 65 118
e 65 120
e 65 134
e 65 150
e 65 160
e 65 164
e 65 166
e 65 168
e 65 190
e 65 200
e 65 206
e 65 221
e 65 242
e 65 248
e 66 70
e 66 79
e 66 92
e 66 99
e 66 143
e 66 150
e 66 159
e 66 176
e 66 177
e 66 182
e 66 190
e 66 191
e 66 193
e 66 196
e 66 208
e 66 209
e 66 216
e 66 217
e 66 219
e 66 221
e 66 223
e 66 244
e 67 86
e 67 92
e 67 97
e 67 112
e 67 114
e 67 130
e 67 143
e 67 147
e 67 152
e 67 153
e 67 154
e 67 162
e 67 170
e 67 174
e 67 175
e 67 183
e 67 184
e 67 202
e 67 210
e 67 217
e 67 241
e 67 246
e 68 73
e 68 76
e 68 77
e 68 94
e 68 99
e 68 103
e 68 108
e 68 111
e 68 119
e 68 129
e 68 137
e 68 142
e 68 181
e 68 188
e 68 193
e 68 202
e 68 209
e 68 216
e 68 217
e 68 220
e 68 225
e 68 239
e 68 249
e 69 72
e 69 82
e 69 101
e 69 104
e 69 119
e 69 131
e 69 136
e 69 142
e 69 152
e 69 169
e 69 176
e 69 182
e 69 189
e 69 194
e 69 217
e 69 221
e 69 223
e 69 226
e 69 232
e 69 236
e 69 237
e 69 238
e 69 246
e 70 72
e 70 93
e 70 111
e 70 115
e 70 120
e 70 126
e 70 145
e 70 179
e 70 216
e 70 229
e 70 240
e 70 247
e 71 96
e 71 108
e 71 109
e 71 127
e 71 130
e 71 144
e 71 157
e 71 176
e 71 180
e 71 200
e 71 203
e 71 207
e 71 213
e 71 222
e 71 223
e 71 227
e 71 229
e 71 234
e 72 84
e 72 106
e 72 110
e 72 132
e 72 150
e 72 195
e 72 196
e 72 220
e 72 221
e 72 235
e 73 77
e 73 101
e 73 109
e 73 117
e 73 120
e 73 125
e 73 134
e 73 144
e 73 145
e 73 151
e 73 175
e 73 183
e 73 193
e 73 195
e 73 214
e 73 218
e 73 224
e 73 236
e 73 244
e 73 246
e 74 75
e 74 87
e 74 90
e 74 104
e 74 108
e 74 120
e 74 122
e 74 125
e 74 131
e 74 132
e 74 135
e 74 154
e 74 184
e 74 192
e 74 201
e 74 205
e 74 210
e 74 214
e 74 220
e 74 221
e 74 233
e 74 238
e 74 249
e 75 91
e 75 102
e 75 114
e 75 120
e 75 121
e 75 123
e 75 126
e 75 142
e 75 148
e 75 185
e 75 224
e 75 241
e 76 80
e 76 90
e 76 101
e 76 119
e 76 121
e 76 140
e 76 143
e 76 170
e 76 180
e 76 181
e 76 186
e 76 190
e 76 198
e 76 205
e 76 215
e 76 237
e 76 240
e 77 80
e 77 92
e 77 94
e 77 105
e 77 107
e 77 122
e 77 133
e 77 139
e 77 163
e 77 172
e 77 180
e 77 181
e 77 188
e 77 195
e 77 208
e 77 222
e 77 232
e 77 233
e 77 246
e 78 85
e 78 86
e 78 113
e 78 114
e 78 115
e 78 118
e 78 146
e 78 152
e 78 156
e 78 184
e 78 187
e 78 188
e 78 189
e 78 190
e 78 197
e 78 214
e 78 241
e 79 107
e 79 121
e 79 123
e 79 128
e 79 131
e 79 135
e 79 148
e 79 158
e 79 176
e 79 198
e 79 232
e 80 91
e 80 111
e 80 141
e 80 167
e 80 168
e 80 174
e 80 175
e 80 195
e 80 223
e 80 240
e 81 83
e 81 97
e 81 117
e 81 119
e 81 131
e 81 144
e 81 151
e 81 153
e 81 159
e 81 200
e 81 208
e 81 217
e 81 228
e 81 244
e 82 83
e 82 90
e 82 94
e 82 118
e 82 123
e 82 125
e 82 128
e 82 130
e 82 142
e 82 149
e 82 152
e 82 153
e 82 168
e 82 169
e 82 174
e 82 179
e 82 180
e 82 184
e 82 185
e 82 187
e 82 197
e 82 202
e 82 203
e 82 233
e 83 106
e 83 107
e 83 123
e 83 128
e 83 129
e 83 137
e 83 167
e 83 173
e 83 197
e 83 204
e 83 212
e 83 215
e 83 233
e 83 244
e 83 250
e 84 93
e 84 106
e 84 128
e 84 141
e 84 147
e 84 156
e 84 157
e 84 165
e 84 179
e 84 185
e 84 196
e 84 199
e 84 217
e 84 241
e 84 243
e 85 86
e 85 93
e 85 98
e 85 100
e 85 124
e 85 138
e 85 141
e 85 145
e 85 148
e 85 167
e 85 168
e 85 170
e 85 177
e 85 179
e 85 182
e 85 204
e 85 211
e 85 218
e 85 219
e 85 248
e 85 250
e 86 114
e 86 120
e 86 131
e 86 143
e 86 162
e 86 164
e 86 176
e 86 180
e 86 194
e 86 210
e 86 217
e 86 228
e 86 242
e 86 244
e 86 245
e 86 247
e 87 139
e 87 153
e 87 170
e 87 171
e 87 173
e 87 183
e 87 191
e 87 227
e 87 230
e 87 242
e 88 100
e 88 102
e 88 109
e 88 118
e 88 120
e 88 121
e 88 130
e 88 132
e 88 133
e 88 134
e 88 137
e 88 145
e 88 154
e 88 159
e 88 165
e 88 168
e 88 173
e 88 183
e 88 187
e 88 189
e 88 198
e 88 211
e 88 212
e 88 220
e 88 221
e 88 238
e 88 245
e 88 249
e 89 101
e 89 104
e 89 105
e 89 107
e 89 139
e 89 170
e 89 173
e 89 178
e 89 185
e 89 191
e 89 216
e 89 221
e 89 228
e 89 230
e 90 93
e 90 101
e 90 102
e 90 111
e 90 116
e 90 124
e 90 133
e 90 141
e 90 142
e 90 175
e 90 179
e 90 188
e 90 205
e 90 211
e 90 231
e 90 233
e 90 234
e 91 95
e 91 99
e 91 106
e 91 110
e 91 116
e 91 124
e 91 147
e 91 148
e 91 150
e 91 164
e 91 184
e 91 207
e 91 217
e 91 225
e 91 226
e 91 244
e 92 100
e 92 111
e 92 120
e 92 125
e 92 130
e 92 132
e 92 151
e 92 157
e 92 158
e 92 161
e 92 164
e 92 177
e 92 186
e 92 189
e 92 190
e 92 213
e 92 217
e 92 218
e 92 221
e 92 240
e 92 245
e 92 248
e 93 132
e 93 139
e 93 153
e 93 154
e 93 163
e 93 169
e 93 171
e 93 173
e 93 181
e 93 185
e 93 239
e 93 248
e 94 103
e 94 109
e 94 110
e 94 113
e 94 122
e 94 123
e 94 134
e 94 158
e 94 169
e 94 186
e 94 193
e 94 206
e 94 207
e 94 208
e 94 212
e 94 227
e 94 229
e 94 239
e 95 100
e 95 103
e 95 112
e 95 122
e 95 131
e 95 136
e 95 137
e 95 140
e 95 155
e 95 180
e 95 190
e 95 196
e 95 204
e 95 209
e 95 216
e 95 220
e 95 227
e 95 243
e 96 101
e 96 102
e 96 107
e 96 117
e 96 123
e 96 127
e 96 133
e 96 150
e 96 163
e 96 195
e 96 200
e 96 212
e 96 217
e 96 219
e 96 231
e 96 240
e 97 98
e 97 103
e 97 107
e 97 117
e 97 140
e 97 173
e 97 196
e 97 200
e 97 207
e 97 213
e 97 230
e 97 231
e 97 235
e 97 238
e 97 239
e 97 245
e 98 105
e 98 113
e 98 125
e 98 131
e 98 136
e 98 138
e 98 141
e 98 164
e 98 167
e 98 207
e 98 215
e 98 250
e 99 103
e 99 104
e 99 117
e 99 120
e 99 124
e 99 128
e 99 129
e 99 136
e 99 151
e 99 184
e 99 188
e 99 189
e 99 194
e 99 195
e 99 198
e 99 199
e 99 202
e 99 218
e 99 234
e 99 247
e 100 112
e 100 123
e 100 129
e 100 132
e 100 136
e 100 149
e 100 170
e 100 182
e 100 198
e 100 207
e 100 217
e 100 218
e 100 229
e 100 238
e 101 119
e 101 132
e 101 139
e 101 142
e 101 147
e 101 157
e 101 164
e 101 177
e 101 183
e 101 192
e 101 208
e 101 225
e 101 231
e 102 121
e 102 131
e 102 142
e 102 149
e 102 155
e 102 158
e 102 159
e 102 162
e 102 169
e 102 186
e 102 197
e 102 224
e 102 235
e 103 110
e 103 150
e 103 153
e 103 156
e 103 170
e 103 171
e 103 179
e 103 190
e 103 198
e 103 203
e 103 204
e 103 213
e 103 219
e 103 223
e 103 226
e 103 228
e 103 232
e 103 237
e 103 250
e 104 108
e 104 111
e 104 112
e 104 119
e 104 127
e 104 144
e 104 147
e 104 152
e 104 167
e 104 168
e 104 169
e 104 189
e 104 200
e 104 207
e 104 216
e 104 217
e 104 223
e 104 224
e 104 241
e 105 106
e 105 121
e 105 123
e 105 133
e 105 148
e 105 152
e 105 157
e 105 164
e 105 168
e 105 172
e 105 191
e 105 192
e 105 194
e 105 202
e 105 209
e 105 216
e 105 228
e 105 230
e 105 238
e 105 249
e 106 118
e 106 143
e 106 155
e 106 166
e 106 185
e 106 188
e 106 246
e 106 248
e 107 109
e 107 112
e 107 126
e 107 151
e 107 167
e 107 185
e 107 194
e 107 197
e 107 217
e 107 225
e 107 231
e 108 111
e 108 132
e 108 141
e 108 144
e 108 159
e 108 165
e 108 171
e 108 182
e 108 183
e 108 198
e 108 209
e 108 227
e 108 229
e 108 237
e 109 121
e 109 140
e 109 144
e 109 148
e 109 166
e 109 193
e 109 196
e 109 206
e 109 210
e 109 233
e 109 238
e 109 240
e 109 245
e 110 113
e 110 116
e 110 130
e 110 138
e 110 143
e 110 159
e 110 165
e 110 169
e 110 190
e 110 196
e 110 204
e 110 230
e 110 233
e 110 237
e 110 242
e 111 123
e 111 137
e 111 140
e 111 143
e 111 152
e 111 153
e 111 159
e 111 165
e 111 175
e 111 181
e 111 183
e 111 195
e 111 200
e 111 221
e 111 222
e 111 244
e 111 249
e 111 250
e 112 131
e 112 138
e 112 145
e 112 146
e 112 160
e 112 178
e 112 184
e 112 192
e 112 193
e 112 198
e 112 207
e 112 222
e 112 243
e 112 249
e 113 116
e 113 122
e 113 129
e 113 132
e 113 139
e 113 143
e 113 148
e 113 149
e 113 152
e 113 161
e 113 163
e 113 164
e 113 199
e 113 229
e 113 232
e 113 233
e 113 235
e 113 242
e 113 243
e 113 244
e 113 246
e 113 247
e 114 128
e 114 140
e 114 156
e 114 164
e 114 177
e 114 190
e 114 203
e 114 220
e 114 240
e 114 241
e 114 244
e 114 246
e 115 116
e 115 122
e 115 134
e 115 136
e 115 149
e 115 151
e 115 166
e 115 173
e 115 179
e 115 182
e 115 191
e 115 195
e 115 215
e 115 238
e 115 240
e 116 117
e 116 144
e 116 159
e 116 168
e 116 188
e 116 199
e 116 201
e 116 208
e 116 217
e 116 225
e 116 228
e 116 229
e 116 234
e 116 243
e 117 122
e 117 136
e 117 137
e 117 140
e 117 170
e 117 179
e 117 184
e 117 193
e 117 197
e 117 200
e 117 207
e 117 229
e 117 249
e 118 122
e 118 130
e 118 138
e 118 141
e 118 162
e 118 168
e 118 191
e 118 220
e 118 227
e 118 230
e 118 236
e 118 243
e 118 246
e 119 120
e 119 137
e 119 154
e 119 176
e 119 178
e 119 188
e 119 204
e 119 209
e 119 250
e 120 128
e 120 150
e 120 158
e 120 195
e 120 199
e 120 223
e 120 226
e 120 231
e 120 234
e 120 242
e 121 125
e 121 130
e 121 133
e 121 140
e 121 142
e 121 143
e 121 155
e 121 158
e 121 167
e 121 168
e 121 176
e 121 223
e 121 229
e 121 232
e 121 236
e 121 239
e 121 240
e 122 124
e 122 125
e 122 126
e 122 138
e 122 157
e 122 179
e 122 187
e 122 198
e 122 202
e 122 219
e 122 243
e 122 247
e 122 248
e 123 125
e 123 135
e 123 153
e 123 160
e 123 165
e 123 241
e 123 242
e 123 249
e 124 128
e 124 131
e 124 132
e 124 162
e 124 173
e 124 180
e 124 192
e 124 198
e 124 215
e 124 224
e 124 230
e 124 237
e 124 250
e 125 137
e 125 158
e 125 177
e 125 208
e 125 212
e 125 214
e 125 218
e 125 220
e 125 221
e 125 239
e 125 242
e 126 127
e 126 136
e 126 141
e 126 149
e 126 151
e 126 160
e 126 163
e 126 177
e 126 180
e 126 203
e 126 207
e 126 239
e 127 134
e 127 139
e 127 146
e 127 147
e 127 171
e 127 184
e 127 194
e 127 199
e 127 203
e 127 227
e 127 230
e 127 232
e 127 234
e 127 249
e 128 141
e 128 170
e 128 191
e 128 201
e 128 209
e 128 219
e 128 221
e 128 232
e 129 130
e 129 148
e 129 160
e 129 167
e 129 174
e 129 175
e 129 176
e 129 199
e 129 209
e 129 210
e 129 213
e 129 220
e 129 225
e 129 232
e 130 132
e 130 133
e 130 134
e 130 140
e 130 148
e 130 150
e 130 152
e 130 168
e 130 193
e 130 194
e 130 200
e 130 207
e 130 208
e 130 223
e 130 236
e 130 238
e 131 139
e 131 140
e 131 153
e 131 162
e 131 183
e 131 194
e 131 203
e 131 213
e 131 215
e 131 235
e 131 240
e 132 133
e 132 149
e 132 166
e 132 179
e 132 184
e 132 191
e 132 206
e 132 214
e 132 227
e 133 136
e 133 139
e 133 181
e 133 217
e 133 223
e 133 236
e 133 237
e 133 247
e 134 139
e 134 142
e 134 144
e 134 160
e 134 161
e 134 189
e 134 208
e 134 211
e 134 217
e 134 226
e 134 237
e 134 242
e 134 249
e 135 138
e 135 149
e 135 154
e 135 158
e 135 170
e 135 185
e 135 196
e 135 216
e 135 228
e 135 238
e 135 241
e 136 146
e 136 152
e 136 159
e 136 162
e 136 168
e 136 171
e 136 174
e 136 181
e 136 201
e 136 203
e 136 209
e 136 226
e 136 233
e 136 245
e 137 150
e 137 164
e 137 171
e 137 180
e 137 194
e 137 220
e 137 235
e 137 237
e 137 238
e 137 241
e 137 248
e 138 156
e 138 166
e 138 181
e 138 189
e 138 196
e 138 204
e 138 208
e 138 237
e 138 239
e 138 240
e 138 242
e 139 153
e 139 163
e 139 165
e 139 175
e 139 176
e 139 179
e 139 182
e 139 189
e 139 197
e 139 203
e 139 204
e 139 206
e 139 208
e 139 209
e 139 217
e 139 222
e 139 235
e 140 150
e 140 159
e 140 178
e 140 180
e 140 202
e 140 205
e 140 231
e 140 236
e 141 146
e 141 152
e 141 167
e 141 184
e 141 199
e 141 246
e 142 151
e 142 152
e 142 158
e 142 160
e 142 164
e 142 167
e 142 174
e 142 190
e 142 197
e 142 199
e 142 205
e 142 206
e 142 207
e 142 227
e 142 233
e 142 242
e 142 243
e 143 144
e 143 153
e 143 164
e 143 169
e 143 187
e 143 191
e 143 208
e 143 213
e 143 228
e 143 243
e 143 244
e 143 247
e 143 249
e 144 145
e 144 160
e 144 167
e 144 181
e 144 206
e 144 210
e 144 242
e 144 244
e 145 178
e 145 197
e 145 204
e 145 214
e 145 219
e 145 226
e 145 236
e 145 237
e 145 240
e 145 248
e 145 249
e 146 151
e 146 159
e 146 163
e 146 165
e 146 168
e 146 169
e 146 176
e 146 178
e 146 182
e 146 183
e 146 193
e 146 202
e 146 217
e 146 231
e 146 234
e 146 239
e 147 155
e 147 172
e 147 176
e 147 181
e 147 182
e 147 195
e 147 209
e 147 234
e 148 158
e 148 166
e 148 168
e 148 176
e 148 199
e 148 204
e 148 206
e 148 210
e 148 227
e 148 240
e 148 241
e 148 243
e 148 246
e 149 150
e 149 164
e 149 168
e 149 172
e 149 185
e 149 196
e 149 198
e 149 201
e 149 206
e 149 240
e 150 170
e 150 174
e 150 176
e 150 177
e 150 214
e 150 225
e 150 228
e 150 230
e 150 235
e 150 242
e 151 153
e 151 184
e 151 203
e 151 226
e 151 229
e 151 239
e 152 153
e 152 181
e 152 215
e 152 216
e 152 223
e 152 236
e 152 245
e 152 246
e 153 173
e 153 187
e 153 189
e 153 192
e 153 203
e 153 209
e 153 216
e 153 225
e 153 238
e 154 174
e 154 182
e 154 186
e 154 189
e 154 215
e 154 225
e 154 239
e 154 249
e 155 174
e 155 176
e 155 181
e 155 207
e 155 213
e 155 222
e 155 226
e 155 228
e 155 231
e 155 248
e 155 249
e 156 164
e 156 175
e 156 199
e 156 211
e 156 218
e 156 225
e 156 234
e 156 235
e 156 238
e 156 244
e 156 245
e 157 187
e 157 190
e 157 192
e 157 203
e 157 207
e 157 227
e 157 229
e 157 241
e 158 165
e 158 166
e 158 206
e 158 207
e 158 212
e 158 219
e 158 225
e 158 237
e 158 248
e 158 249
e 159 170
e 159 190
e 159 192
e 159 198
e 159 204
e 159 210
e 159 232
e 159 241
e 160 170
e 160 196
e 160 206
e 160 213
e 160 233
e 160 243
e 161 166
e 161 174
e 161 179
e 161 194
e 161 198
e 161 221
e 161 225
e 161 228
e 162 194
e 162 221
e 162 226
e 162 231
e 162 250
e 163 173
e 163 188
e 163 190
e 163 207
e 163 215
e 163 225
e 163 229
e 163 232
e 163 234
e 164 175
e 164 182
e 164 206
e 164 213
e 164 229
e 164 247
e 165 174
e 165 175
e 165 189
e 165 203
e 165 217
e 165 233
e 165 243
e 165 249
e 166 174
e 166 178
e 166 184
e 166 204
e 166 209
e 166 212
e 166 234
e 166 241
e 166 242
e 166 244
e 167 180
e 167 201
e 167 231
e 167 232
e 168 189
e 168 193
e 168 194
e 168 212
e 168 217
e 168 219
e 168 221
e 168 230
e 168 236
e 168 248
e 169 170
e 169 174
e 169 186
e 169 193
e 169 206
e 169 214
e 169 227
e 169 234
e 169 242
e 169 243
e 169 244
e 169 247
e 170 173
e 170 181
e 170 186
e 170 195
e 170 197
e 170 202
e 170 206
e 170 209
e 170 216
e 170 220
e 171 176
e 171 181
e 171 189
e 171 196
e 171 199
e 171 213
e 171 215
e 171 248
e 172 188
e 172 207
e 172 212
e 172 216
e 172 237
e 173 180
e 173 181
e 173 199
e 173 212
e 173 214
e 173 217
e 173 224
e 173 233
e 173 234
e 173 249
e 174 176
e 174 178
e 174 185
e 174 187
e 174 212
e 174 218
e 174 220
e 174 229
e 174 235
e 174 250
e 175 183
e 175 185
e 175 190
e 175 200
e 175 205
e 175 206
e 175 211
e 175 248
e 176 180
e 176 201
e 176 213
e 176 214
e 176 221
e 176 232
e 177 181
e 177 217
e 177 218
e 177 243
e 178 184
e 178 191
e 178 207
e 178 235
e 178 239
e 179 186
e 179 187
e 179 204
e 179 221
e 179 236
e 180 193
e 180 203
e 180 206
e 180 219
e 180 231
e 180 236
e 180 249
e 181 202
e 181 214
e 181 231
e 181 242
e 182 185
e 182 187
e 182 196
e 182 224
e 182 239
e 182 242
e 183 190
e 183 202
e 183 206
e 183 209
e 183 210
e 183 212
e 183 232
e 183 242
e 184 190
e 184 201
e 184 213
e 184 214
e 184 217
e 184 223
e 184 239
e 184 245
e 184 249
e 185 186
e 185 196
e 185 205
e 185 228
e 185 241
e 186 187
e 186 201
e 186 206
e 186 207
e 186 212
e 186 214
e 186 220
e 186 226
e 186 242
e 186 245
e 186 248
e 186 249
e 187 189
e 187 199
e 187 201
e 187 202
e 187 208
e 187 210
e 187 214
e 187 239
e 187 244
e 187 245
e 188 194
e 188 198
e 188 202
e 188 204
e 188 207
e 188 209
e 188 244
e 188 249
e 189 195
e 189 209
e 189 210
e 190 197
e 190 201
e 190 212
e 190 243
e 190 248
e 191 202
e 191 206
e 191 209
e 191 214
e 191 228
e 191 233
e 191 236
e 191 250
e 192 206
e 192 223
e 192 233
e 192 243
e 193 207
e 193 221
e 193 244
e 193 247
e 193 250
e 194 206
e 194 211
e 194 212
e 194 230
e 194 249
e 195 220
e 195 223
e 195 230
e 195 232
e 195 236
e 195 242
e 195 247
e 196 200
e 196 225
e 197 204
e 197 205
e 197 207
e 197 218
e 197 223
e 197 229
e 197 232
e 198 201
e 198 221
e 198 224
e 198 231
e 198 243
e 199 202
e 199 208
e 199 209
e 199 215
e 199 220
e 199 227
e 199 236
e 199 241
e 199 248
e 199 249
e 200 207
e 200 213
e 200 222
e 201 219
e 201 238
e 201 242
e 201 243
e 201 245
e 202 205
e 202 212
e 202 238
e 202 240
e 202 243
e 203 216
e 203 219
e 203 245
e 203 248
e 204 206
e 204 209
e 204 214
e 204 221
e 204 232
e 204 239
e 204 249
e 205 214
e 205 217
e 205 221
e 205 224
e 205 228
e 205 237
e 205 244
e 206 213
e 206 227
e 206 229
e 206 233
e 206 240
e 206 241
e 206 247
e 207 231
e 207 242
e 207 249
e 208 222
e 208 226
e 208 228
e 208 242
e 209 212
e 209 220
e 209 225
e 209 226
e 209 230
e 209 248
e 210 212
e 210 214
e 210 218
e 210 220
e 210 239
e 211 216
e 211 238
e 211 241
e 211 243
e 211 249
e 211 250
e 212 240
e 212 248
e 213 231
e 213 237
e 213 246
e 213 248
e 214 216
e 214 218
e 214 222
e 214 226
e 214 233
e 214 236
e 214 239
e 215 216
e 215 217
e 215 218
e 215 220
e 215 248
e 216 217
e 217 222
e 217 225
e 217 237
e 217 244
e 218 219
e 218 231
e 218 241
e 219 228
e 219 239
e 219 240
e 220 227
e 220 229
e 220 230
e 220 231
e 221 245
e 221 247
e 221 248
e 222 225
e 222 231
e 222 232
e 222 245
e 223 231
e 223 240
e 224 230
e 224 249
e 225 230
e 226 231
e 227 233
e 227 242
e 227 250
e 228 232
e 229 241
e 229 246
e 230 237
e 230 241
e 230 245
e 231 236
e 231 244
e 231 246
e 232 240
e 233 235
e 233 238
e 233 244
e 233 247
e 233 249
e 234 244
e 235 238
e 235 239
e 235 246
e 236 239
e 236 243
e 237 243
e 238 249
e 242 250
e 243 249
e 244 245
e 246 248
